(set-logic ALL)
(set-option :produce-models true)
(declare-sort BoundSet 0)
(declare-sort UnboundSet 0)
(set-option :finite-model-find true)
(declare-fun IsWatching (BoundSet) Bool)
(declare-fun AreInKilts (BoundSet) Bool)
(declare-fun ThrowsLongPole (BoundSet) Bool)
(assert (not (=> (exists ((a BoundSet)) (exists ((b BoundSet)) (and (IsWatching a) (AreInKilts b)))) (exists ((e BoundSet)) (exists ((c BoundSet)) (and (IsWatching c) (ThrowsLongPole e)))))))
(check-sat)
(get-model)